\ Generated by MPModelProtoExporter
\   Name             : 
\   Format           : Free
\   Constraints      : 46
\   Variables        : 54
\     Binary         : 50
\     Integer        : 4
\     Continuous     : 0
Minimize
 Obj: +1e+10 V00 +100 V02 +125 V04 +100 V06 +75 V08 +100 V11 +1e+10 V13 +50 V15 +75 V17 +125 V19 +125 V22 +50 V24 +1e+10 V26 +100 V28 +125 V30 +100 V33 +75 V35 +100 V37 +1e+10 V39 +50 V41 +75 V44 +125 V46 +125 V48 +50 V50 +1e+10 V52 
Subject to
 C00: +1 V02 +1 V04 +1 V06 +1 V08  = 1
 C01: +1 V11 +1 V15 +1 V17 +1 V19  = 1
 C02: +1 V22 +1 V24 +1 V28 +1 V30  = 1
 C03: +1 V33 +1 V35 +1 V37 +1 V41  = 1
 C04: +1 V44 +1 V46 +1 V48 +1 V50  = 1
 C05: +1 V11 +1 V22 +1 V33 +1 V44  = 1
 C06: +1 V02 +1 V24 +1 V35 +1 V46  = 1
 C07: +1 V04 +1 V15 +1 V37 +1 V48  = 1
 C08: +1 V06 +1 V17 +1 V28 +1 V50  = 1
 C09: +1 V08 +1 V19 +1 V30 +1 V41  = 1
 C10: -1 V10 +4 V13 +1 V14 +1 V16 +1 V18 +1 V20  = 0
 C11: +1 V14 +1 V16 +1 V18 +1 V20 -1 V21 +4 V24 +1 V25 +1 V27 +1 V29 +1 V31  = 0
 C12: +1 V14 +1 V16 +1 V18 +1 V20 +1 V25 +1 V27 +1 V29 +1 V31 -1 V32 +4 V35 +1 V36 +1 V38 +1 V40 +1 V42  = 0
 C13: +1 V14 +1 V16 +1 V18 +1 V20 +1 V25 +1 V27 +1 V29 +1 V31 +1 V36 +1 V38 +1 V40 +1 V42 -1 V43 +4 V46 +1 V47 +1 V49 +1 V51 +1 V53  = 0
 C14: -1 V10 +1 V14 +1 V25 +1 V36 +1 V47  = -1
 C15: +1 V14 +1 V16 -1 V21 +1 V25 +1 V27 +1 V36 +1 V38 +1 V47 +1 V49  = -1
 C16: +1 V14 +1 V16 +1 V18 +1 V25 +1 V27 +1 V29 -1 V32 +1 V36 +1 V38 +1 V40 +1 V47 +1 V49 +1 V51  = -1
 C17: +1 V14 +1 V16 +1 V18 +1 V20 +1 V25 +1 V27 +1 V29 +1 V31 +1 V36 +1 V38 +1 V40 +1 V42 -1 V43 +1 V47 +1 V49 +1 V51 +1 V53  = -1
 C18: -3 V15 +1 V16  <= 0
 C19: -3 V24 +1 V25  <= 0
 C20: +1 V16 -1 V21 -1 V24 +1 V25  <= -1
 C21: -1 V10 -1 V15 +1 V16 +1 V25  <= -1
 C22: -3 V17 +1 V18  <= 0
 C23: -3 V35 +1 V36  <= 0
 C24: +1 V18 -1 V32 -1 V35 +1 V36  <= -1
 C25: -1 V10 -1 V17 +1 V18 +1 V36  <= -1
 C26: -3 V19 +1 V20  <= 0
 C27: -3 V46 +1 V47  <= 0
 C28: +1 V20 -1 V43 -1 V46 +1 V47  <= -1
 C29: -1 V10 -1 V19 +1 V20 +1 V47  <= -1
 C30: -3 V28 +1 V29  <= 0
 C31: -3 V37 +1 V38  <= 0
 C32: +1 V29 -1 V32 -1 V37 +1 V38  <= -1
 C33: -1 V21 -1 V28 +1 V29 +1 V38  <= -1
 C34: -3 V41 +1 V42  <= 0
 C35: -3 V50 +1 V51  <= 0
 C36: +1 V42 -1 V43 -1 V50 +1 V51  <= -1
 C37: -1 V32 -1 V41 +1 V42 +1 V51  <= -1
 C38: -3 V30 +1 V31  <= 0
 C39: -3 V48 +1 V49  <= 0
 C40: +1 V31 -1 V43 -1 V48 +1 V49  <= -1
 C41: -1 V21 -1 V30 +1 V31 +1 V49  <= -1
 C42: +2 V02 +1 V10 -1 V11  <= 3
 C43: +2 V04 +1 V21 -1 V22  <= 3
 C44: +2 V06 +1 V32 -1 V33  <= 3
 C45: +2 V08 +1 V43 -1 V44  <= 3
Bounds
 0 <= V00 <= 1
 0 <= V02 <= 1
 0 <= V04 <= 1
 0 <= V06 <= 1
 0 <= V08 <= 1
 -inf <= V10 <= inf
 0 <= V11 <= 1
 0 <= V13 <= 1
 0 <= V14 <= 1
 0 <= V15 <= 1
 0 <= V16 <= 1
 0 <= V17 <= 1
 0 <= V18 <= 1
 0 <= V19 <= 1
 0 <= V20 <= 1
 -inf <= V21 <= inf
 0 <= V22 <= 1
 0 <= V24 <= 1
 0 <= V25 <= 1
 0 <= V26 <= 1
 0 <= V27 <= 1
 0 <= V28 <= 1
 0 <= V29 <= 1
 0 <= V30 <= 1
 0 <= V31 <= 1
 -inf <= V32 <= inf
 0 <= V33 <= 1
 0 <= V35 <= 1
 0 <= V36 <= 1
 0 <= V37 <= 1
 0 <= V38 <= 1
 0 <= V39 <= 1
 0 <= V40 <= 1
 0 <= V41 <= 1
 0 <= V42 <= 1
 -inf <= V43 <= inf
 0 <= V44 <= 1
 0 <= V46 <= 1
 0 <= V47 <= 1
 0 <= V48 <= 1
 0 <= V49 <= 1
 0 <= V50 <= 1
 0 <= V51 <= 1
 0 <= V52 <= 1
 0 <= V53 <= 1
Binaries
 V00
 V02
 V04
 V06
 V08
 V11
 V13
 V14
 V15
 V16
 V17
 V18
 V19
 V20
 V22
 V24
 V25
 V26
 V27
 V28
 V29
 V30
 V31
 V33
 V35
 V36
 V37
 V38
 V39
 V40
 V41
 V42
 V44
 V46
 V47
 V48
 V49
 V50
 V51
 V52
 V53
Generals
 V10
 V21
 V32
 V43
End
